







































































37 41 
59 8 
5 23 
68 29 
67 57 
42 49 
19 30 
48 18 
10 46 
76 7 
40 35 
28 71 
14 22 
53 16 
74 64 
63 66 
9 20 
50 26 
61 4 
70 12 
43 58 
69 56 
33 39 
32 2 
25 36 
52 21 
62 1 
34 73 
51 44 
45 55 
31 3 
15 75 
72 

24 6 

65 
11 17 
0 54 
38 27 
13 47 

60 
